p cnf 392 568
-66 -29 -14 107 0
-66 -29 -14 -107 0
6 -98 -42 108 0
6 -98 -42 -108 0
17 -28 -37 109 0
17 -28 -37 -109 0
-82 -84 -76 110 0
-82 -84 -76 -110 0
-1 -24 70 111 0
-1 -24 70 -111 0
-81 -106 -36 112 0
-81 -106 -36 -112 0
52 34 -36 113 0
52 34 -36 -113 0
16 30 -100 114 0
16 30 -100 -114 0
-99 -42 -68 115 0
-99 -42 -68 -115 0
68 93 72 116 0
68 93 72 -116 0
84 -7 61 117 0
84 -7 61 -117 0
53 38 25 118 0
53 38 25 -118 0
-52 11 12 119 0
-52 11 12 -119 0
-86 60 -23 120 0
-86 60 -23 -120 0
-37 -17 28 121 0
-37 -17 28 -121 0
-11 76 122 123 0
-11 76 122 -123 0
-11 76 -122 124 0
-11 76 -122 -124 0
54 78 66 125 0
54 78 66 -125 0
-76 82 84 126 0
-76 82 84 -126 0
-44 23 -95 127 0
-44 23 -95 -127 0
-46 27 71 128 0
-46 27 71 -128 0
92 19 61 129 0
92 19 61 -129 0
-67 73 -94 130 0
-67 73 -94 -130 0
-10 -3 26 131 0
-10 -3 26 -131 0
47 -97 -88 132 0
47 -97 -88 -132 0
-81 -2 65 133 0
-81 -2 65 -133 0
57 85 -13 134 0
57 85 -13 -134 0
33 59 -74 135 0
33 59 -74 -135 0
9 100 -50 136 0
9 100 -50 -136 0
57 13 -85 137 0
57 13 -85 -137 0
-56 -16 -38 138 0
-56 -16 -38 -138 0
17 37 28 139 0
17 37 28 -139 0
3 -40 -43 140 0
3 -40 -43 -140 0
34 50 15 141 0
34 50 15 -141 0
-79 -8 -74 142 0
-79 -8 -74 -142 0
29 -102 -22 143 0
29 -102 -22 -143 0
-87 -75 -80 144 0
-87 -75 -80 -144 0
103 -31 -53 145 0
103 -31 -53 -145 0
-44 99 5 146 0
-44 99 5 -146 0
59 -33 74 147 0
59 -33 74 -147 0
72 105 -102 148 0
72 105 -102 -148 0
47 97 88 149 0
47 97 88 -149 0
43 40 3 150 0
43 40 3 -150 0
19 -24 -21 151 0
19 -24 -21 -151 0
-73 63 -89 152 0
-73 63 -89 -152 0
-87 80 75 153 0
-87 80 75 -153 0
-71 15 90 154 0
-71 15 90 -154 0
-2 18 80 155 0
-2 18 80 -155 0
-89 -33 78 156 0
-89 -33 78 -156 0
1 70 24 157 0
1 70 24 -157 0
88 -90 -69 158 0
88 -90 -69 -158 0
-10 32 86 159 0
-10 32 86 -159 0
50 -15 -34 160 0
50 -15 -34 -160 0
85 -58 -31 161 0
85 -58 -31 -161 0
52 12 -11 162 0
52 12 -11 -162 0
8 -79 74 163 0
8 -79 74 -163 0
14 -29 66 164 0
14 -29 66 -164 0
-43 -13 87 165 0
-43 -13 87 -165 0
-61 -19 92 166 0
-61 -19 92 -166 0
-60 49 104 167 0
-60 49 104 -167 0
-92 -61 19 168 0
-92 -61 19 -168 0
83 96 -6 169 0
83 96 -6 -169 0
24 -1 -70 170 0
24 -1 -70 -170 0
-32 48 -103 171 0
-32 48 -103 -171 0
62 -7 -1 172 0
62 -7 -1 -172 0
96 -63 -55 173 0
96 -63 -55 -173 0
-57 48 -105 174 0
-57 48 -105 -174 0
-85 -58 31 175 0
-85 -58 31 -175 0
-4 -37 -12 176 0
-4 -37 -12 -176 0
-60 -23 86 177 0
-60 -23 86 -177 0
15 -50 -34 178 0
15 -50 -34 -178 0
-90 -71 -15 179 0
-90 -71 -15 -179 0
-40 28 82 180 0
-40 28 82 -180 0
38 -16 56 181 0
38 -16 56 -181 0
68 -72 -93 182 0
68 -72 -93 -182 0
81 -2 -65 183 0
81 -2 -65 -183 0
-8 -67 -49 184 0
-8 -67 -49 -184 0
-29 102 -22 185 0
-29 102 -22 -185 0
-97 88 -47 186 0
-97 88 -47 -186 0
79 -101 4 187 0
79 -101 4 -187 0
-24 -70 1 188 0
-24 -70 1 -188 0
-17 -55 64 189 0
-17 -55 64 -189 0
9 50 -100 190 0
9 50 -100 -190 0
17 -64 -55 191 0
17 -64 -55 -191 0
-105 102 72 192 0
-105 102 72 -192 0
87 75 -80 193 0
87 75 -80 -193 0
21 64 -92 194 0
21 64 -92 -194 0
14 -51 -97 195 0
14 -51 -97 -195 0
75 41 -30 196 0
75 41 -30 -196 0
78 89 33 197 0
78 89 33 -197 0
7 -84 61 198 0
7 -84 61 -198 0
-67 94 -73 199 0
-67 94 -73 -199 0
-73 89 -63 200 0
-73 89 -63 -200 0
-14 -97 51 201 0
-14 -97 51 -201 0
-82 84 76 202 0
-82 84 76 -202 0
-12 52 11 203 0
-12 52 11 -203 0
82 76 -84 204 0
82 76 -84 -204 0
4 -37 12 205 0
4 -37 12 -205 0
-25 20 77 206 0
-25 20 77 -206 0
-82 -28 -40 207 0
-82 -28 -40 -207 0
-11 -12 -52 208 0
-11 -12 -52 -208 0
13 87 43 209 0
13 87 43 -209 0
99 -68 42 210 0
99 -68 42 -210 0
-79 4 101 211 0
-79 4 101 -211 0
-104 93 -70 212 0
-104 93 -70 -212 0
79 74 -8 213 0
79 74 -8 -213 0
-55 63 -96 214 0
-55 63 -96 -214 0
-35 101 -45 215 0
-35 101 -45 -215 0
-66 -54 78 216 0
-66 -54 78 -216 0
-41 47 -91 217 0
-41 47 -91 -217 0
58 31 85 218 0
58 31 85 -218 0
92 -21 64 219 0
92 -21 64 -219 0
79 8 -74 220 0
79 8 -74 -220 0
-93 104 -70 221 0
-93 104 -70 -221 0
-104 60 49 222 0
-104 60 49 -222 0
80 -18 2 223 0
80 -18 2 -223 0
-99 -5 -44 224 0
-99 -5 -44 -224 0
-29 22 -102 225 0
-29 22 -102 -225 0
-33 -78 89 226 0
-33 -78 89 -226 0
-95 -59 56 227 0
-95 -59 56 -227 0
91 65 -35 228 0
91 65 -35 -228 0
-75 -41 -30 229 0
-75 -41 -30 -229 0
-18 -80 -2 230 0
-18 -80 -2 -230 0
58 -31 -85 231 0
58 -31 -85 -231 0
105 57 48 232 0
105 57 48 -232 0
103 -32 -48 233 0
103 -32 -48 -233 0
-41 75 30 234 0
-41 75 30 -234 0
16 -30 100 235 0
16 -30 100 -235 0
66 29 -14 236 0
66 29 -14 -236 0
-58 106 69 237 0
-58 106 69 -237 0
-19 -24 21 238 0
-19 -24 21 -238 0
77 98 -27 239 0
77 98 -27 -239 0
-50 -100 -9 240 0
-50 -100 -9 -240 0
-39 -9 5 241 0
-39 -9 5 -241 0
6 -96 83 242 0
6 -96 83 -242 0
74 33 -59 243 0
74 33 -59 -243 0
96 -83 6 244 0
96 -83 6 -244 0
-62 20 -51 245 0
-62 20 -51 -245 0
63 96 55 246 0
63 96 55 -246 0
22 18 94 247 0
22 18 94 -247 0
-26 3 -10 248 0
-26 3 -10 -248 0
20 51 62 249 0
20 51 62 -249 0
97 14 51 250 0
97 14 51 -250 0
-90 69 -88 251 0
-90 69 -88 -251 0
71 -27 46 252 0
71 -27 46 -252 0
-8 67 49 253 0
-8 67 49 -253 0
13 85 -57 254 0
13 85 -57 -254 0
86 60 23 255 0
86 60 23 -255 0
45 -101 -35 256 0
45 -101 -35 -256 0
68 -42 99 257 0
68 -42 99 -257 0
-9 100 50 258 0
-9 100 50 -258 0
46 39 26 259 0
46 39 26 -259 0
-13 -87 43 260 0
-13 -87 43 -260 0
-96 -83 -6 261 0
-96 -83 -6 -261 0
-49 60 104 262 0
-49 60 104 -262 0
8 -49 67 263 0
8 -49 67 -263 0
16 38 -56 264 0
16 38 -56 -264 0
-72 102 105 265 0
-72 102 105 -265 0
-57 -48 105 266 0
-57 -48 105 -266 0
10 -86 32 267 0
10 -86 32 -267 0
-99 5 44 268 0
-99 5 44 -268 0
-80 18 2 269 0
-80 18 2 -269 0
41 30 -75 270 0
41 30 -75 -270 0
-64 -17 55 271 0
-64 -17 55 -271 0
-54 -78 66 272 0
-54 -78 66 -272 0
42 -99 68 273 0
42 -99 68 -273 0
-48 32 -103 274 0
-48 32 -103 -274 0
31 -103 -53 275 0
31 -103 -53 -275 0
-5 39 -9 276 0
-5 39 -9 -276 0
-98 27 77 277 0
-98 27 77 -277 0
-1 7 -62 278 0
-1 7 -62 -278 0
-90 71 15 279 0
-90 71 15 -279 0
37 -17 -28 280 0
37 -17 -28 -280 0
-25 -38 53 281 0
-25 -38 53 -281 0
-4 79 101 282 0
-4 79 101 -282 0
22 -94 -18 283 0
22 -94 -18 -283 0
35 -101 -45 284 0
35 -101 -45 -284 0
42 -6 -98 285 0
42 -6 -98 -285 0
-20 51 -62 286 0
-20 51 -62 -286 0
-68 -72 93 287 0
-68 -72 93 -287 0
73 94 67 288 0
73 94 67 -288 0
-87 13 -43 289 0
-87 13 -43 -289 0
-86 -60 23 290 0
-86 -60 23 -290 0
-57 -85 -13 291 0
-57 -85 -13 -291 0
-4 -101 -79 292 0
-4 -101 -79 -292 0
-35 -91 -65 293 0
-35 -91 -65 -293 0
36 81 -106 294 0
36 81 -106 -294 0
106 36 -81 295 0
106 36 -81 -295 0
-5 9 -39 296 0
-5 9 -39 -296 0
-23 95 -44 297 0
-23 95 -44 -297 0
-102 -105 -72 298 0
-102 -105 -72 -298 0
-39 -26 46 299 0
-39 -26 46 -299 0
-26 -46 39 300 0
-26 -46 39 -300 0
17 64 55 301 0
17 64 55 -301 0
34 -15 -50 302 0
34 -15 -50 -302 0
81 2 65 303 0
81 2 65 -303 0
90 69 88 304 0
90 69 88 -304 0
-54 45 83 305 0
-54 45 83 -305 0
29 14 -66 306 0
29 14 -66 -306 0
42 6 98 307 0
42 6 98 -307 0
-12 37 4 308 0
-12 37 4 -308 0
26 10 3 309 0
26 10 3 -309 0
-48 57 -105 310 0
-48 57 -105 -310 0
-106 -58 -69 311 0
-106 -58 -69 -311 0
-23 -95 44 312 0
-23 -95 44 -312 0
-69 -88 90 313 0
-69 -88 90 -313 0
-46 26 -39 314 0
-46 26 -39 -314 0
104 93 70 315 0
104 93 70 -315 0
-75 87 80 316 0
-75 87 80 -316 0
-30 -100 -16 317 0
-30 -100 -16 -317 0
-84 -61 -7 318 0
-84 -61 -7 -318 0
46 -71 27 319 0
46 -71 27 -319 0
48 32 103 320 0
48 32 103 -320 0
35 65 -91 321 0
35 65 -91 -321 0
40 -3 -43 322 0
40 -3 -43 -322 0
-38 25 -53 323 0
-38 25 -53 -323 0
92 21 -64 324 0
92 21 -64 -324 0
-28 82 40 325 0
-28 82 40 -325 0
36 -34 52 326 0
36 -34 52 -326 0
-18 94 -22 327 0
-18 94 -22 -327 0
-21 -92 -64 328 0
-21 -92 -64 -328 0
-34 -52 -36 329 0
-34 -52 -36 -329 0
-56 -95 59 330 0
-56 -95 59 -330 0
-106 58 69 331 0
-106 58 69 -331 0
-89 -63 73 332 0
-89 -63 73 -332 0
-14 97 -51 333 0
-14 97 -51 -333 0
72 -93 -68 334 0
72 -93 -68 -334 0
98 27 -77 335 0
98 27 -77 -335 0
-63 -96 55 336 0
-63 -96 55 -336 0
1 -7 -62 337 0
1 -7 -62 -337 0
19 21 24 338 0
19 21 24 -338 0
16 -38 56 339 0
16 -38 56 -339 0
-78 -89 33 340 0
-78 -89 33 -340 0
-40 -3 43 341 0
-40 -3 43 -341 0
83 -45 54 342 0
83 -45 54 -342 0
5 39 9 343 0
5 39 9 -343 0
22 102 29 344 0
22 102 29 -344 0
30 -16 100 345 0
30 -16 100 -345 0
63 89 73 346 0
63 89 73 -346 0
53 31 103 347 0
53 31 103 -347 0
-3 -26 10 348 0
-3 -26 10 -348 0
81 -36 106 349 0
81 -36 106 -349 0
106 58 -69 350 0
106 58 -69 -350 0
-33 -74 -59 351 0
-33 -74 -59 -351 0
95 -59 -56 352 0
95 -59 -56 -352 0
-78 54 -66 353 0
-78 54 -66 -353 0
-67 8 49 354 0
-67 8 49 -354 0
70 -93 -104 355 0
70 -93 -104 -355 0
-19 -21 24 356 0
-19 -21 24 -356 0
-94 67 -73 357 0
-94 67 -73 -357 0
-77 20 25 358 0
-77 20 25 -358 0
-20 77 25 359 0
-20 77 25 -359 0
90 -15 71 360 0
90 -15 71 -360 0
-71 -46 -27 361 0
-71 -46 -27 -361 0
-49 -104 -60 362 0
-49 -104 -60 -362 0
36 -52 34 363 0
36 -52 34 -363 0
-65 2 -81 364 0
-65 2 -81 -364 0
10 -32 86 365 0
10 -32 86 -365 0
-94 -22 18 366 0
-94 -22 18 -366 0
91 47 41 367 0
91 47 41 -367 0
101 45 35 368 0
101 45 35 -368 0
62 1 7 369 0
62 1 7 -369 0
-27 -98 -77 370 0
-27 -98 -77 -370 0
95 56 59 371 0
95 56 59 -371 0
-5 44 99 372 0
-5 44 99 -372 0
-88 -47 97 373 0
-88 -47 97 -373 0
-42 98 -6 374 0
-42 98 -6 -374 0
-51 62 -20 375 0
-51 62 -20 -375 0
11 -76 376 377 0
11 -76 376 -377 0
11 -76 -376 378 0
11 -76 -376 -378 0
23 95 44 379 0
23 95 44 -379 0
-41 -47 91 380 0
-41 -47 91 -380 0
91 -65 35 381 0
91 -65 35 -381 0
-103 53 -31 382 0
-103 53 -31 -382 0
45 54 -83 383 0
45 54 -83 -383 0
-92 -19 61 384 0
-92 -19 61 -384 0
-83 -45 -54 385 0
-83 -45 -54 -385 0
-25 38 -53 386 0
-25 38 -53 -386 0
12 37 -4 387 0
12 37 -4 -387 0
-91 41 -47 388 0
-91 41 -47 -388 0
28 -82 40 389 0
28 -82 40 -389 0
84 -61 7 390 0
84 -61 7 -390 0
-77 -20 -25 391 0
-77 -20 -25 -391 0
-10 -86 -32 392 0
-10 -86 -32 -392 0

